LatticeConstant 1.0 Ang
%block LatticeVectors
 50.56925542 0.00000000 0.00000000
 0.00000000 51.27112668 0.00000000
 0.00000000 0.00000000 50.09002565
%endblock LatticeVectors
%block ChemicalSpeciesLabel
  1  6  C.psml
  2  1  H.psml 
%endblock

NumberOfAtoms 50
AtomicCoordinatesFormat Ang
%block AtomicCoordinatesAndAtomicSpecies
 24.84718794 15.97673413 25.04501283 1 #  1: C
 24.18628403 15.92910521 24.14539522 2 #  2: H
 24.18628404 15.92910522 25.94463044 2 #  3: H
 25.47925176 15.05692552 25.04501283 2 #  4: H
 25.70232484 17.25439513 25.04501283 1 #  5: C
 26.37927169 17.25270275 25.93752036 2 #  6: H
 26.37927171 17.25270275 24.15250530 2 #  7: H
 24.86384959 18.54653082 25.04501282 1 #  8: C
 24.18525582 18.54697402 24.15250782 2 #  9: H
 24.18525582 18.54697402 25.93751781 2 # 10: H
 25.70844541 19.83427558 25.04501282 1 # 11: C
 26.38674709 19.83377013 25.93759795 2 # 12: H
 26.38674709 19.83377014 24.15242768 2 # 13: H
 24.86571759 21.12347125 25.04501283 1 # 14: C
 24.18738638 21.12299185 24.15251029 2 # 15: H
 24.18738638 21.12299184 25.93751536 2 # 16: H
 25.70744991 22.41319768 25.04501282 1 # 17: C
 26.38571468 22.41392133 25.93756139 2 # 18: H
 26.38571468 22.41392133 24.15246427 2 # 19: H
 24.86360567 23.70168449 25.04501283 1 # 20: C
 24.18527191 23.70136818 24.15249409 2 # 21: H
 24.18527191 23.70136818 25.93753155 2 # 22: H
 25.70606071 24.99104253 25.04501281 1 # 23: C
 26.38435957 24.99104629 25.93753786 2 # 24: H
 26.38435957 24.99104629 24.15248780 2 # 25: H
 24.86319470 26.28008415 25.04501284 1 # 26: C
 24.18489584 26.28008039 24.15248779 2 # 27: H
 24.18489583 26.28008040 25.93753784 2 # 28: H
 25.70564976 27.56944219 25.04501281 1 # 29: C
 26.38398351 27.56975849 25.93753157 2 # 30: H
 26.38398350 27.56975849 24.15249410 2 # 31: H
 24.86180550 28.85792900 25.04501283 1 # 32: C
 24.18354075 28.85720534 24.15246426 2 # 33: H
 24.18354074 28.85720534 25.93756138 2 # 34: H
 25.70353784 30.14765543 25.04501283 1 # 35: C
 26.38186903 30.14813484 25.93751536 2 # 36: H
 26.38186904 30.14813484 24.15251031 2 # 37: H
 24.86081000 31.43685110 25.04501283 1 # 38: C
 24.18250832 31.43735655 24.15242770 2 # 39: H
 24.18250832 31.43735655 25.93759796 2 # 40: H
 25.70540583 32.72459586 25.04501283 1 # 41: C
 26.38399960 32.72415266 25.93751782 2 # 42: H
 26.38399959 32.72415265 24.15250783 2 # 43: H
 24.86693057 34.01673154 25.04501283 1 # 44: C
 24.18998371 34.01842393 24.15250530 2 # 45: H
 24.18998371 34.01842392 25.93752036 2 # 46: H
 25.72206748 35.29439254 25.04501282 1 # 47: C
 26.38297138 35.34202146 25.94463043 2 # 48: H
 26.38297137 35.34202146 24.14539521 2 # 49: H
 25.09000365 36.21420116 25.04501282 2 # 50: H
%endblock AtomicCoordinatesAndAtomicSpecies

NumberOfSpecies 2
%block ChemicalSpeciesLabel
 1 6 C
 2 1 H
%endblock ChemicalSpeciesLabel
